100
32
19
4
14
17
27
4
2
6
32
12
6
16
9
9
1
29
9
16
29
31
5
2
8
11
8
21
31
18
32
29
14
19
11
10
27
26
22
25
30
8
18
3
10
29
6
14
12
28
8
32
23
17
4
3
12
9
21
26
14
31
31
25
13
2
19
10
16
19
8
21
21
13
30
22
20
25
9
4
21
15
12
12
7
11
1
16
32
8
5
13
9
5
8
20
9
2
1
6
9
15